InboundTrucks  = 120;
OutboundTrucks = 60;
InboundDoors   = 10;
OutboundDoors  = 10;
ReleaseTime    = [25,58,14,22,0,80,80,37,29,51,26,51,69,113,57,7,81,80,22,16,13,104,31,114,3,30,73,32,6,26,18,44,41,104,40,66,113,72,95,27,78,43,83,50,69,80,56,18,60,6,94,56,78,42,68,24,40,69,89,5,100,11,87,60,49,86,73,61,66,14,84,10,18,39,60,80,64,51,54,43,117,75,51,106,26,35,10,6,104,29,115,25,97,1,76,56,83,38,25,42,92,0,54,8,111,113,95,83,63,33,42,42,15,51,77,31,29,98,4,44];
UnloadTime     = [38,30,29,17,10,45,30,35,21,11,37,37,34,25,32,10,15,25,32,22,25,41,17,26,42,10,31,41,31,24,36,21,30,42,23,42,11,20,16,22,40,45,33,45,24,21,21,13,45,32,35,17,35,31,44,32,11,41,39,25,42,25,41,25,36,30,13,40,44,42,33,44,31,32,29,22,13,35,33,18,16,45,33,23,31,21,39,32,33,15,26,35,24,23,11,12,34,45,27,36,23,41,39,15,43,45,14,12,29,19,34,20,10,27,20,24,14,39,39,11];
LoadTime       = [14,21,21,24,20,6,18,27,27,20,7,30,6,5,9,29,12,25,29,11,7,13,13,9,21,19,20,9,19,17,30,5,18,16,11,9,15,18,19,6,20,5,28,25,26,11,26,27,25,11,30,26,21,21,25,18,6,13,30,22];
TransferTime   = [| 0,40,34,0,0,0,11,0,0,0,26,21,0,34,0,0,0,0,0,0,0,20,0,45,0,47,0,0,12,33,43,47,0,0,0,0,14,36,0,18,0,28,0,0,37,23,0,0,11,0,45,0,0,0,0,0,18,0,17,39 | 0,0,0,0,0,0,0,36,0,0,0,20,0,0,0,0,0,0,0,0,0,0,0,0,0,0,0,0,17,0,0,0,0,0,0,0,36,0,20,0,0,0,0,10,0,0,0,0,45,0,0,0,0,0,0,0,0,0,0,12 | 0,15,41,0,47,24,0,22,0,0,0,13,0,17,0,35,0,0,0,27,0,0,0,0,16,0,0,0,0,20,10,0,0,0,0,0,0,0,0,14,0,0,17,0,0,0,39,0,50,0,0,0,20,14,10,34,50,23,0,0 | 0,0,0,0,0,48,0,0,0,0,26,0,22,0,0,0,0,0,0,44,0,0,13,0,0,0,43,0,26,0,0,0,28,0,0,0,17,0,0,0,0,0,18,0,46,0,0,45,38,0,0,0,0,13,0,0,26,29,0,0 | 0,10,0,35,0,0,0,31,32,18,0,0,30,31,0,0,0,10,0,31,0,0,0,0,0,49,0,0,50,0,25,0,14,0,17,0,0,0,0,42,0,0,0,0,0,0,0,0,0,0,0,41,0,0,0,0,0,0,0,22 | 0,0,0,21,0,0,28,0,20,0,0,0,0,0,45,0,23,28,0,47,0,0,0,0,0,0,0,0,0,29,0,0,0,0,32,36,0,0,0,0,0,30,22,45,0,0,0,0,34,0,0,24,0,0,0,0,0,0,0,0 | 21,0,0,0,0,0,41,46,0,0,0,0,0,0,32,45,0,26,15,0,0,0,0,0,0,0,0,0,35,0,16,0,0,0,27,0,0,0,0,30,0,0,0,0,0,31,0,18,0,0,0,12,0,0,49,0,0,28,0,0 | 0,0,0,0,50,0,0,0,0,0,0,0,0,0,0,0,0,0,0,0,0,0,0,45,0,0,0,0,0,0,0,0,0,0,15,0,0,0,12,0,41,12,0,0,0,40,0,0,0,0,0,0,0,0,31,43,0,0,0,0 | 41,0,0,0,0,0,17,0,0,28,0,31,0,0,0,0,0,0,0,0,0,49,0,0,11,0,0,0,0,24,0,0,0,0,0,0,17,0,0,24,0,0,0,0,0,0,0,0,0,24,0,0,0,0,0,48,0,0,32,0 | 35,0,0,10,0,22,0,0,0,0,29,0,0,0,0,0,0,0,0,14,0,24,0,13,0,0,0,50,0,0,0,0,19,0,0,0,0,0,45,42,0,0,0,45,0,0,0,37,0,34,0,0,0,41,50,0,0,0,0,0 | 0,39,0,0,0,44,0,0,48,0,0,0,44,0,0,0,0,0,50,0,18,0,46,0,0,0,37,0,0,0,0,0,0,0,0,0,21,0,0,30,0,0,0,0,21,50,0,0,0,0,0,41,0,47,0,44,0,0,0,0 | 0,46,0,0,0,0,0,0,0,0,0,0,36,0,0,0,32,0,12,0,18,0,0,25,0,0,0,0,38,29,0,18,0,0,0,32,0,0,12,0,0,0,0,0,0,0,48,0,0,0,46,0,0,0,24,0,0,0,0,42 | 0,23,0,0,37,0,0,0,0,0,0,0,0,0,0,11,0,0,0,0,0,0,24,32,0,0,0,48,0,0,0,0,0,24,22,35,46,0,0,0,0,0,46,42,0,0,0,0,0,0,0,30,0,0,0,0,41,0,0,47 | 0,0,0,0,0,0,0,0,49,0,0,0,0,0,0,0,13,49,0,0,0,0,0,0,0,0,20,0,35,0,0,0,0,20,0,0,46,0,0,40,0,0,0,0,0,0,0,46,0,31,0,0,0,0,0,0,0,0,0,29 | 0,50,0,0,0,38,0,0,18,0,0,0,0,46,0,0,0,0,0,0,0,0,0,0,0,0,0,37,0,0,0,0,0,0,0,28,21,0,24,0,0,0,0,0,0,0,0,36,41,0,0,29,0,0,0,0,0,0,0,0 | 46,0,0,0,0,0,45,0,49,24,0,0,0,0,0,0,0,44,24,0,0,0,0,0,22,0,12,0,0,14,0,0,0,0,0,0,0,0,0,0,11,0,0,0,0,49,0,0,37,0,31,0,0,0,0,0,0,0,0,45 | 0,11,0,0,19,22,0,0,26,0,42,0,0,0,0,24,0,0,28,0,0,0,0,0,0,32,0,0,0,17,0,0,0,0,0,20,0,0,0,0,0,44,0,0,0,0,0,37,15,0,43,0,0,0,38,23,0,0,22,0 | 13,0,0,0,0,42,20,0,0,0,47,35,0,40,0,0,38,0,0,0,0,38,0,0,38,0,0,0,0,0,0,0,0,0,29,0,0,0,0,0,0,0,0,0,0,27,0,0,0,0,0,0,13,41,0,0,0,48,0,0 | 33,0,0,42,0,46,0,0,0,0,0,38,0,0,0,0,0,28,45,10,25,0,0,0,0,0,0,0,32,40,0,0,0,0,0,41,0,0,0,11,0,0,49,0,0,0,0,0,0,0,47,0,0,0,0,0,0,49,0,0 | 0,0,0,0,37,0,16,47,0,24,0,0,15,0,0,0,0,0,0,23,0,0,0,0,0,0,0,25,0,0,0,0,0,0,34,0,0,0,0,0,0,0,0,0,0,0,0,0,0,0,0,0,0,47,0,0,15,45,0,0 | 0,0,0,0,18,0,0,0,0,0,24,0,0,0,16,0,21,0,0,0,0,0,0,0,0,0,0,0,0,0,41,0,0,0,18,21,0,18,32,0,0,18,0,0,0,0,0,0,45,23,0,20,0,0,0,0,0,0,0,0 | 0,0,0,0,0,0,0,0,0,0,0,0,0,0,0,0,0,0,0,0,0,0,0,0,0,0,14,0,47,0,0,0,14,20,34,0,0,44,0,0,0,0,0,0,0,13,0,0,0,0,0,0,0,0,47,0,0,25,0,0 | 0,0,29,0,43,0,14,0,0,39,0,14,0,0,0,28,19,0,31,46,0,0,0,0,0,0,0,0,0,0,0,0,0,0,0,18,0,0,0,18,17,45,0,31,0,0,0,0,0,0,0,0,10,0,50,0,45,0,0,10 | 0,0,0,0,0,30,0,0,0,20,0,48,0,0,0,48,0,15,43,23,0,0,0,0,0,31,0,19,0,0,26,0,0,0,0,27,11,0,26,0,0,50,0,0,0,36,0,0,0,0,0,0,28,0,0,49,0,47,0,32 | 0,0,0,27,0,0,37,0,0,0,0,0,22,42,23,0,24,0,0,0,0,0,0,0,0,0,0,0,0,0,0,0,0,0,0,0,0,0,27,0,0,0,30,26,0,0,0,0,0,0,0,46,0,0,0,0,41,0,13,15 | 0,0,0,0,0,0,0,0,15,27,0,40,0,0,0,0,0,0,0,43,0,0,27,0,0,13,0,0,0,0,0,0,28,0,45,20,0,24,0,0,0,0,26,0,0,0,0,0,0,41,35,45,0,0,0,41,0,0,0,40 | 0,0,24,0,12,0,0,34,0,12,25,0,0,0,15,0,50,13,11,0,32,0,0,0,23,0,0,0,0,0,39,0,30,23,0,0,0,0,0,45,11,0,0,33,0,45,11,0,0,34,0,17,0,0,0,0,0,0,0,0 | 0,0,0,0,0,0,0,0,0,0,0,0,0,0,0,0,0,0,0,0,0,0,0,0,0,50,0,0,0,0,39,0,30,0,0,42,0,0,0,0,0,0,0,0,0,0,0,0,0,0,0,0,0,0,0,0,0,0,0,0 | 47,0,0,0,0,0,0,0,0,0,0,0,0,0,0,0,0,0,0,0,10,0,33,0,0,0,0,0,31,0,0,0,0,0,0,0,0,46,47,0,0,0,0,0,14,0,0,34,0,17,0,0,0,42,0,19,0,0,0,0 | 0,0,0,0,0,0,0,0,0,0,0,0,0,0,0,0,35,0,0,0,0,0,40,0,0,0,0,0,0,50,0,0,0,0,0,0,0,0,0,0,0,40,0,0,0,0,0,0,0,0,0,0,0,0,10,39,0,0,22,0 | 0,0,0,0,0,17,41,0,0,0,0,33,0,0,35,0,0,20,0,0,32,37,0,0,0,32,0,0,0,0,0,0,0,20,0,0,0,0,0,0,26,0,0,19,0,0,10,0,0,18,0,0,0,0,39,0,32,0,0,0 | 0,0,0,31,0,0,20,43,17,0,0,0,0,0,0,22,0,0,0,25,0,0,0,0,0,0,0,0,41,0,34,0,0,0,0,0,0,0,38,0,0,38,0,0,0,27,0,39,0,0,0,12,0,0,28,0,0,19,0,32 | 0,0,17,0,0,0,0,0,0,0,0,0,0,0,34,0,23,0,0,0,0,0,45,0,0,21,41,41,0,31,0,0,0,39,0,0,0,0,0,18,0,0,0,0,0,20,0,0,0,0,0,46,49,0,0,0,0,0,0,0 | 0,18,0,0,0,0,0,21,0,45,0,0,0,0,0,40,44,0,0,0,0,0,0,0,0,25,0,11,0,0,0,19,0,0,0,44,10,39,10,50,0,34,0,0,0,17,0,0,44,0,44,0,15,0,12,0,50,17,0,0 | 0,0,0,0,0,0,0,0,0,0,15,0,0,0,0,0,44,0,0,0,0,13,0,49,0,0,0,15,0,47,0,0,0,0,0,0,0,0,39,0,0,0,0,0,23,42,39,0,35,40,48,20,0,0,0,0,19,31,32,0 | 0,39,0,0,0,14,0,0,45,32,31,0,0,33,0,0,0,0,0,0,0,0,0,0,0,0,34,0,43,0,0,30,0,0,24,0,29,0,0,0,29,0,0,42,0,0,0,0,48,0,0,0,0,0,0,27,0,0,0,0 | 0,0,0,0,0,0,0,0,0,0,0,35,24,0,0,0,0,0,0,25,0,0,0,0,0,0,0,0,0,39,47,19,0,0,35,0,0,29,0,25,0,0,0,0,45,11,0,24,40,0,0,0,0,0,0,0,24,0,18,0 | 28,0,0,0,0,0,0,0,25,0,0,0,0,13,0,0,31,0,23,0,0,38,18,16,0,0,0,0,0,0,0,0,0,0,38,10,0,0,0,0,45,0,0,0,40,0,0,0,0,0,0,0,0,0,33,29,0,0,0,0 | 0,0,0,17,0,0,0,0,0,0,34,0,12,0,0,0,0,0,0,0,0,12,50,0,0,0,0,0,0,50,0,0,0,0,29,10,23,0,0,0,0,0,0,0,16,0,0,32,36,0,0,0,21,0,0,0,0,0,47,0 | 0,38,29,0,0,0,33,0,0,0,0,0,48,0,0,0,0,0,0,0,0,0,0,46,0,0,0,0,0,0,0,0,27,0,0,0,0,0,27,0,0,0,0,0,43,0,0,12,0,0,0,0,0,14,0,0,0,36,41,50 | 0,0,24,0,0,0,0,0,0,0,0,0,10,0,19,42,0,0,0,27,0,0,0,12,0,0,0,0,33,0,0,0,0,42,0,0,0,10,21,17,0,0,0,50,0,0,17,0,0,0,25,0,0,0,0,0,0,0,0,49 | 0,0,0,24,0,10,0,0,36,36,0,0,0,0,42,0,0,0,0,0,0,0,22,0,17,0,46,0,0,0,28,0,0,0,0,0,27,0,0,0,41,19,36,0,0,0,0,0,0,0,0,0,0,40,19,0,44,0,49,0 | 0,22,0,23,0,0,22,0,10,0,23,0,0,0,0,0,24,0,0,0,0,0,0,0,38,0,0,0,0,0,0,0,0,0,0,0,0,0,35,0,0,0,0,0,0,0,29,0,0,0,0,49,0,0,16,0,26,0,0,40 | 15,0,0,0,0,34,0,40,0,0,0,0,0,0,0,0,0,0,0,0,0,0,23,0,0,0,0,29,49,0,43,24,41,0,0,0,0,0,0,0,0,0,0,0,0,0,11,0,0,0,0,0,0,0,21,39,45,0,21,0 | 0,20,0,33,27,42,0,0,36,0,0,0,49,0,0,0,0,0,27,0,0,0,0,24,0,0,15,0,18,0,0,42,0,0,0,0,0,0,25,19,34,0,0,0,48,23,0,0,0,0,0,0,0,0,0,38,44,20,0,0 | 0,0,43,0,0,17,0,0,0,41,46,0,10,16,44,0,0,0,27,0,17,0,0,0,0,0,0,0,0,0,0,0,0,0,0,0,0,48,0,35,17,38,0,13,0,0,0,0,0,0,49,0,0,0,0,0,35,0,0,0 | 43,0,0,0,0,0,0,0,37,0,0,0,0,25,0,0,0,0,0,11,0,0,22,0,0,0,0,0,0,0,0,0,0,0,0,0,0,27,0,0,0,24,0,0,0,43,23,0,0,48,0,0,33,0,0,23,0,0,42,0 | 0,0,0,0,32,0,0,40,0,0,0,0,0,30,0,25,0,0,0,13,0,0,0,0,11,18,0,0,26,0,29,0,49,20,0,0,0,38,0,0,44,0,0,37,0,0,0,0,34,0,0,12,15,45,29,0,24,0,23,0 | 0,40,0,0,0,14,0,0,0,0,0,0,0,0,0,0,0,0,0,0,0,0,22,0,0,0,0,0,0,0,0,0,0,0,0,0,0,0,0,0,0,0,0,29,0,0,0,0,35,0,0,0,0,0,0,14,40,0,0,0 | 0,0,0,0,0,0,0,0,0,20,0,0,0,23,28,33,32,0,0,0,43,0,0,36,0,22,0,0,0,0,0,14,0,0,0,44,0,0,0,0,50,0,0,0,39,0,0,0,0,0,0,45,0,0,0,0,0,0,0,0 | 0,0,0,0,0,0,0,13,0,14,25,15,0,0,0,25,0,0,0,48,0,0,17,0,39,28,0,0,0,0,10,32,28,24,0,0,0,0,28,20,27,0,27,0,0,0,13,29,0,0,0,0,0,0,44,0,0,11,0,0 | 27,0,47,0,0,0,0,33,31,0,0,0,0,0,0,38,0,0,0,0,0,0,0,0,0,0,0,0,0,0,0,32,0,0,0,0,0,0,0,25,0,37,0,0,0,0,0,16,0,25,0,13,0,19,0,48,25,0,0,0 | 0,0,28,0,0,0,0,0,23,0,0,0,0,46,26,0,21,13,26,50,0,0,0,10,0,22,0,0,0,0,0,0,0,0,0,0,34,13,0,0,0,0,43,43,48,0,0,28,31,0,0,0,0,35,0,0,0,0,0,0 | 25,49,21,0,0,18,0,0,0,0,0,10,35,0,43,0,0,27,0,0,42,0,40,43,40,0,0,0,0,0,0,0,38,21,35,0,19,0,33,0,0,0,0,0,0,0,0,39,21,31,0,0,0,0,0,0,0,0,0,0 | 0,0,0,0,0,0,0,0,13,0,39,0,0,0,11,0,0,18,0,0,0,0,0,36,0,17,0,0,0,25,13,44,0,0,0,0,0,0,0,0,0,0,0,0,0,41,0,0,12,0,0,0,0,30,0,38,0,28,0,0 | 0,11,23,0,0,41,0,44,0,0,14,0,0,13,0,0,0,14,0,0,21,0,14,0,0,0,36,0,0,18,0,0,0,0,0,0,0,0,0,0,0,0,10,0,0,42,0,0,0,0,0,17,0,0,38,0,29,20,0,0 | 0,0,0,0,0,0,0,0,12,21,0,0,0,0,0,15,0,0,0,0,38,40,0,0,0,0,0,0,13,0,0,0,0,0,0,0,0,0,38,0,0,0,0,0,0,0,0,30,0,21,0,18,26,0,13,22,0,0,0,0 | 14,0,0,0,0,0,0,0,0,32,0,0,0,12,22,0,0,0,0,35,0,0,20,0,0,0,0,0,0,23,0,22,36,0,50,0,29,0,0,40,0,30,0,0,0,11,0,0,0,0,0,0,0,0,0,0,0,0,0,0 | 0,13,0,10,0,0,0,0,0,0,0,0,20,0,0,0,0,0,0,48,32,33,0,0,0,0,0,0,23,0,28,0,0,42,0,0,0,0,0,0,0,0,0,0,0,0,0,0,0,0,29,0,0,0,0,0,35,0,0,0 | 0,0,0,0,0,0,46,31,0,0,0,0,28,48,0,0,41,22,45,41,0,0,0,0,0,0,0,0,0,0,0,0,10,0,0,0,45,0,0,0,0,0,0,0,0,0,0,0,0,0,0,0,0,0,0,0,41,0,32,34 | 0,0,0,0,0,0,0,0,37,0,31,0,0,10,0,19,0,0,0,24,37,0,0,11,0,0,0,11,0,0,0,0,0,0,0,0,44,32,0,0,0,44,0,37,0,0,0,0,0,0,0,0,17,0,0,0,30,0,0,0 | 0,0,0,0,0,0,0,0,0,0,0,0,0,13,0,0,0,0,0,0,13,0,0,0,0,0,14,0,34,0,0,0,0,0,0,0,0,0,0,0,0,0,49,41,0,0,0,0,0,0,0,34,0,40,0,0,17,0,42,0 | 0,0,0,0,0,0,42,0,0,0,0,20,0,0,0,0,36,0,43,44,0,18,23,0,14,0,0,0,0,0,48,0,25,0,0,0,27,0,0,0,0,0,0,13,38,0,31,0,0,41,0,0,0,35,0,0,33,0,0,0 | 0,0,0,0,0,0,0,0,0,0,0,0,0,0,0,0,0,44,37,0,0,43,0,0,0,0,0,0,0,0,10,0,0,0,0,0,0,50,0,32,0,0,0,0,19,24,0,0,0,28,0,38,0,0,0,23,0,43,0,0 | 12,0,0,16,0,0,47,11,0,0,0,33,29,0,0,0,0,0,0,0,20,0,0,0,0,0,0,0,0,0,0,15,0,44,38,0,0,0,0,19,0,0,42,44,22,0,0,0,45,19,0,0,0,0,0,0,31,0,17,10 | 47,11,0,17,0,0,0,0,17,0,0,44,0,0,0,11,45,42,0,0,46,21,0,0,0,0,0,0,34,0,0,0,37,0,0,0,0,0,0,0,0,0,0,0,0,0,0,0,0,0,0,0,0,0,0,21,0,0,0,34 | 0,0,0,0,0,0,0,43,0,0,0,0,0,41,0,0,0,0,0,33,44,0,0,0,39,24,0,0,0,0,28,0,0,0,0,0,0,46,45,17,0,0,0,0,0,0,0,0,0,0,0,11,42,0,32,0,0,0,0,0 | 0,0,0,0,0,0,29,0,0,0,0,0,11,0,0,0,0,0,0,0,0,0,0,0,49,0,29,0,0,0,0,0,17,0,45,0,34,0,0,0,0,0,0,0,0,50,0,0,0,0,0,0,39,0,0,0,0,0,0,0 | 0,0,0,0,19,30,0,0,39,0,0,0,0,35,44,0,0,14,49,32,0,17,0,0,0,0,27,0,12,0,0,0,0,0,0,0,0,0,0,0,0,47,0,0,26,0,0,0,0,0,0,0,34,0,0,0,0,0,0,0 | 0,0,0,0,0,45,0,0,0,0,24,0,32,0,0,13,0,0,0,0,11,0,0,32,0,26,15,0,0,0,0,0,39,0,0,0,12,0,0,23,0,0,0,0,12,0,0,45,0,19,30,41,0,0,0,0,0,49,44,0 | 0,0,0,0,0,0,0,0,12,0,0,0,0,0,0,0,0,0,0,0,46,0,0,0,0,0,0,0,0,25,0,44,0,0,0,0,0,0,0,45,0,0,0,40,0,0,0,19,0,0,0,0,0,0,35,0,0,29,0,0 | 0,40,0,0,0,0,34,0,0,0,0,0,0,0,0,17,0,0,14,0,0,0,0,0,0,16,0,45,0,0,0,0,0,0,39,50,0,0,0,0,0,0,0,0,0,0,0,0,25,0,21,0,18,0,0,0,0,0,0,0 | 41,0,0,0,0,0,14,0,0,0,0,0,0,0,38,0,0,0,0,39,0,19,0,0,0,0,0,0,0,0,37,0,0,43,0,0,0,11,0,0,0,0,22,40,0,35,0,31,22,0,0,0,0,0,0,0,0,41,0,0 | 0,0,0,0,21,20,38,0,0,0,0,43,0,0,0,0,24,18,33,31,0,0,0,0,0,50,0,0,0,0,0,0,0,0,0,0,50,0,0,0,0,0,0,49,0,11,30,0,0,0,0,0,0,0,0,0,0,24,48,0 | 0,0,0,20,0,0,0,0,50,0,0,33,46,0,0,49,0,0,22,18,0,50,0,0,36,0,31,0,0,0,0,37,12,0,0,34,0,0,0,0,0,49,0,0,41,0,0,0,0,0,0,0,43,0,0,0,35,0,0,0 | 0,23,0,0,0,0,0,0,47,0,28,0,0,0,0,0,0,0,40,0,0,39,0,0,0,0,18,0,0,0,0,0,0,0,0,0,37,0,47,10,12,0,48,0,0,0,0,0,0,0,0,0,0,0,49,0,28,0,14,0 | 32,0,40,0,30,0,0,0,42,0,0,0,32,0,0,0,0,0,0,0,10,0,22,0,0,0,0,33,0,0,25,0,0,0,0,0,0,41,14,0,0,0,0,0,0,23,0,0,15,29,23,41,0,0,0,27,40,0,0,0 | 13,0,0,0,30,0,0,0,0,0,0,0,0,0,0,0,40,0,0,0,30,27,0,0,0,0,30,0,0,47,0,45,0,0,14,28,0,0,0,0,0,18,0,0,0,0,0,0,0,0,31,0,0,0,0,0,0,0,0,0 | 0,41,17,0,0,0,0,0,0,13,0,11,30,37,0,0,0,0,26,0,0,0,0,0,0,0,0,0,20,0,0,0,0,46,43,0,0,25,26,50,33,32,0,0,0,0,13,0,0,0,0,0,24,0,27,0,0,0,17,0 | 45,28,0,0,18,10,0,0,14,0,0,0,0,41,0,0,50,47,0,0,29,0,0,0,0,13,0,0,0,50,0,0,0,0,0,0,0,0,0,0,0,0,27,0,20,0,22,0,0,16,14,0,0,11,0,37,0,0,0,0 | 0,36,0,0,0,0,0,0,25,0,12,26,0,30,0,0,31,11,0,0,0,0,0,0,44,29,34,0,0,0,21,0,25,13,27,29,48,0,0,0,0,0,0,0,0,0,0,0,0,44,0,0,50,21,0,17,0,0,49,0 | 37,0,0,0,0,0,0,24,0,0,0,0,0,25,49,50,0,0,0,13,0,32,0,0,0,14,0,0,35,0,0,14,0,0,42,0,0,45,0,40,0,0,0,0,0,0,0,40,49,0,0,29,16,0,39,0,0,0,0,0 | 0,0,0,33,0,11,0,47,0,0,0,0,19,38,33,0,0,0,0,44,0,0,0,32,0,0,0,0,10,0,0,0,0,0,0,0,0,22,0,0,10,0,0,11,0,0,0,0,48,0,0,0,0,0,0,0,0,0,43,0 | 0,0,0,0,29,31,29,12,0,0,0,26,33,0,0,0,47,48,0,0,0,0,0,0,0,0,0,0,33,0,0,0,0,0,18,0,0,25,30,46,0,0,0,0,0,0,0,35,0,0,0,0,0,0,43,0,0,41,0,0 | 42,0,0,0,0,38,48,0,0,0,0,0,12,0,46,0,42,12,0,0,0,19,0,0,0,0,0,0,0,0,30,19,0,0,0,40,0,21,0,0,0,0,0,0,0,0,0,24,0,0,0,0,0,48,0,0,11,0,45,0 | 24,0,0,42,0,18,0,0,0,0,11,0,0,0,0,0,30,0,40,0,0,13,25,0,44,0,0,0,0,40,34,0,0,0,14,0,13,0,37,0,0,0,0,0,0,30,44,0,0,0,0,0,44,0,0,0,0,0,43,0 | 0,0,0,0,0,0,46,0,0,0,36,0,0,33,35,0,31,0,0,0,0,0,0,47,0,0,0,34,0,0,0,0,0,0,0,0,30,0,0,48,32,0,25,0,0,0,26,0,0,0,0,0,0,20,0,0,0,0,0,31 | 0,0,0,0,0,0,0,0,0,0,17,49,48,0,0,36,0,45,0,17,0,0,0,0,29,0,0,0,0,0,0,0,26,17,0,0,11,10,0,0,0,15,0,10,0,14,0,0,0,0,27,0,0,16,39,0,0,0,0,21 | 0,0,0,0,0,0,23,0,50,0,30,16,0,0,0,49,0,0,0,0,0,0,0,22,0,0,0,0,0,0,0,0,0,0,0,0,0,15,0,0,0,47,0,0,20,0,42,0,0,44,0,12,50,0,0,35,0,31,0,0 | 0,45,0,0,0,0,0,0,0,29,0,0,0,0,14,0,0,0,19,0,0,20,20,0,0,0,0,45,0,0,33,0,0,22,0,0,43,0,37,0,0,24,0,0,47,0,0,0,22,0,0,0,0,47,0,0,0,41,0,0 | 0,0,41,13,0,0,0,0,0,44,0,0,41,0,0,10,0,0,0,0,0,41,0,0,0,0,0,0,0,48,0,23,0,0,0,0,0,0,0,19,22,0,0,0,0,16,0,0,0,0,0,0,0,0,44,0,0,0,0,0 | 0,44,29,0,0,0,50,0,34,0,0,0,17,19,0,15,0,41,0,34,16,0,0,0,0,0,0,0,0,0,45,21,0,0,0,0,10,0,0,30,0,0,43,0,50,0,0,0,36,0,0,21,37,31,0,0,45,0,0,41 | 25,0,0,28,0,0,0,45,0,0,0,0,0,0,0,0,35,0,0,0,19,0,0,0,0,0,0,0,10,0,0,32,0,0,0,0,0,30,0,0,0,0,0,14,49,0,0,0,0,0,0,0,0,32,0,0,23,0,0,0 | 33,0,46,0,41,0,0,0,0,0,0,0,0,0,0,33,0,0,0,0,0,0,0,0,0,0,25,0,0,18,28,21,43,0,0,0,0,0,0,22,16,0,0,0,0,0,0,0,29,0,20,0,0,16,0,0,0,0,32,27 | 0,0,0,0,0,24,0,0,0,0,0,16,0,0,0,39,0,0,0,43,25,0,0,41,0,0,0,32,30,0,0,0,31,0,0,0,0,46,42,0,0,0,0,0,40,0,0,0,0,0,0,0,0,0,35,0,0,0,0,0 | 0,0,31,0,0,36,0,30,31,0,0,0,0,34,0,0,0,0,47,0,0,43,33,0,11,33,0,0,0,21,0,0,37,0,0,38,0,0,0,0,0,43,0,0,0,0,0,0,44,0,0,0,0,0,35,0,43,0,0,0 | 32,0,0,38,0,0,19,0,12,0,0,0,0,0,12,0,41,0,34,0,0,10,0,0,0,22,0,0,0,0,0,0,46,0,0,0,15,0,0,0,0,0,0,41,38,0,0,0,0,12,50,0,16,0,44,0,0,0,0,0 | 0,0,0,0,0,0,0,41,0,0,0,0,0,17,0,0,0,0,0,0,0,0,12,36,0,0,0,0,0,48,0,0,10,14,0,0,0,0,0,0,0,37,0,0,0,0,0,46,0,0,0,0,0,0,31,39,0,0,0,0 | 0,0,45,40,0,0,0,0,31,0,0,0,0,0,0,0,0,0,0,20,0,38,0,13,0,29,0,0,48,0,0,0,0,0,15,41,23,0,30,10,0,0,0,0,0,0,0,0,29,0,0,18,0,0,0,0,0,0,0,0 | 25,0,12,0,0,10,0,0,0,17,26,40,0,0,0,43,0,0,0,15,14,0,17,27,0,0,0,0,27,0,42,0,0,0,0,18,0,25,0,0,0,0,0,46,0,0,0,0,18,20,0,0,0,0,0,30,0,0,0,0 | 29,0,0,21,0,0,33,44,49,0,0,0,0,0,0,0,0,0,0,41,0,0,41,0,0,0,0,28,0,49,25,27,12,41,0,0,0,21,38,0,0,0,0,0,0,0,0,0,0,0,0,0,0,0,0,0,0,0,0,0 | 48,0,0,0,0,0,0,41,0,0,0,0,0,0,0,0,0,0,0,0,0,16,0,0,22,15,23,0,0,0,0,36,0,26,0,0,0,0,0,0,0,22,0,0,0,0,0,33,49,0,0,0,0,46,0,0,0,35,48,33 | 0,0,35,0,41,0,0,0,0,0,0,0,0,30,21,0,0,27,0,0,12,0,0,0,0,20,29,0,0,0,0,0,0,14,0,0,0,0,0,0,0,18,32,0,17,0,0,0,0,0,44,0,0,0,28,0,0,0,19,47 | 0,28,0,0,50,0,47,0,0,0,0,46,0,25,0,0,0,0,0,0,0,0,0,0,0,0,0,0,20,0,20,0,0,0,0,0,0,0,0,0,10,0,40,0,0,0,28,47,0,41,0,0,37,0,28,0,44,0,0,0 | 29,0,0,0,0,48,0,0,45,0,0,0,0,11,0,0,33,29,0,0,0,0,0,0,44,0,0,0,38,0,0,30,0,0,36,0,23,30,39,0,0,0,28,0,0,0,0,33,0,0,0,30,46,0,0,48,38,36,39,12 | 17,0,0,0,0,0,0,0,12,37,0,0,0,0,50,34,12,0,0,0,0,0,21,0,0,12,0,0,28,0,35,0,0,0,0,0,28,0,0,0,0,14,27,0,0,12,0,0,48,0,12,15,0,0,33,0,0,0,0,46 | 22,0,0,35,0,0,0,37,34,18,0,0,0,0,0,0,15,0,43,0,0,0,28,0,11,14,0,0,0,0,23,0,0,0,0,0,27,0,0,43,0,19,16,30,0,0,0,26,30,0,0,0,13,12,35,0,0,0,0,0 | 0,0,0,0,41,0,0,0,0,0,0,0,0,0,0,25,0,0,0,0,41,0,0,0,0,0,0,0,0,0,33,0,49,25,0,29,0,0,0,0,0,0,0,0,0,0,0,0,0,0,0,0,0,34,33,38,0,0,0,0 | 0,0,0,0,33,17,0,0,38,0,0,0,32,19,0,0,0,15,49,0,0,39,0,0,0,0,0,0,38,22,0,0,0,0,0,0,27,0,0,0,36,0,0,0,0,0,0,0,0,0,44,0,0,28,0,13,0,0,0,0 | 0,17,0,21,25,0,0,0,0,0,0,0,37,22,33,0,10,0,0,0,0,32,0,31,0,30,0,0,36,0,41,22,22,0,0,0,22,0,0,0,35,0,21,0,25,0,0,35,11,0,0,0,0,0,0,15,22,0,13,0 | 0,14,0,17,0,0,44,0,0,0,0,0,0,0,40,0,0,0,0,0,0,50,0,0,0,0,0,33,0,28,31,0,0,0,43,0,0,27,0,0,14,48,0,0,0,0,0,0,34,0,0,0,0,0,0,0,0,0,0,0 | 0,24,0,37,10,19,0,0,0,0,0,0,0,0,0,0,0,0,44,0,0,22,0,0,0,38,0,0,31,21,0,0,18,39,0,0,0,0,0,0,50,0,38,0,0,0,0,0,0,0,0,0,31,27,0,0,0,0,0,0 | 0,0,0,0,0,47,0,0,0,0,20,12,21,0,0,0,0,11,0,0,0,0,0,0,0,29,0,0,23,0,0,19,0,0,0,0,16,0,0,0,0,0,0,0,26,0,0,0,0,0,0,46,49,41,0,0,0,0,0,0 | 0,0,46,0,21,0,0,0,0,16,0,40,0,0,0,16,35,0,0,0,0,0,44,0,0,27,29,0,0,0,0,0,0,0,0,10,0,28,38,30,0,0,0,0,0,0,48,0,0,0,28,48,0,0,0,0,0,0,0,0 | 0,18,0,0,0,0,0,0,0,45,0,0,0,12,0,0,0,0,0,0,0,0,0,0,0,0,0,0,0,0,0,0,0,0,0,0,25,32,0,33,0,0,0,0,32,15,0,15,0,0,0,0,0,0,0,0,0,0,0,44 | 29,0,0,0,0,40,0,0,0,19,0,0,44,0,0,0,0,0,0,0,0,0,0,0,0,0,0,0,0,37,0,44,0,0,0,0,0,0,50,0,23,18,47,0,0,35,0,19,0,0,29,0,48,0,21,25,0,0,0,0 | 15,0,0,0,0,0,0,0,0,0,0,0,0,0,0,0,0,23,0,0,33,0,0,0,0,0,0,0,0,0,0,0,12,0,49,40,0,0,0,0,38,0,0,0,0,0,0,0,0,0,24,0,0,0,0,24,0,0,0,0 | 13,0,0,40,0,38,0,0,27,0,16,0,0,0,0,0,0,0,47,0,27,0,46,39,0,0,0,27,0,50,0,39,24,0,20,0,35,0,0,14,32,0,0,0,35,0,0,0,14,37,0,0,0,22,0,0,0,0,33,0 | 40,0,44,0,24,0,27,27,16,0,0,0,0,0,0,0,43,0,0,0,22,28,0,0,0,0,50,0,0,0,0,0,0,0,34,0,0,0,0,0,0,0,0,0,0,0,0,39,0,0,0,0,0,40,0,0,0,0,0,47 | 0,0,0,0,0,0,0,29,45,0,0,30,47,0,0,0,0,0,0,0,21,0,0,0,0,0,42,0,0,0,0,24,19,0,0,49,0,0,0,0,0,0,18,0,36,0,0,0,0,0,37,21,0,0,0,0,0,0,0,36 |];
